p cnf 11 16
-10 1 -2 9 3 11 0
-5 -9 10 0
-7 2 0
-8 1 0
1 11 -10 -4 0
8 -1 11 -10 6 9 0
-2 10 0
-6 -3 5 4 -8 -2 10 -9 11 -7 -1 0
1 -9 -7 -3 10 -11 2 6 4 0
-9 -2 11 7 8 6 3 0
4 -11 0
7 1 -6 -3 0
-8 -6 0
-2 -10 0
7 -4 9 -3 0
-7 -2 -1 0
